;; sequence(s): A30907
;; terms: 1 2 6 25 127 766 5365 42920 386283 3862837 42491212 509894549 6628629137 92800807920 1392012118804 22272193900878 378627296314936 6815291333668857 129490535339708300 2589810706794166014
;; small program: (loop(1 + ((loop(x * x, 2, 2) * x) * y), x, 1) * (1 + x)) div loop(x * x, 2, loop(x + x, x, 1))
;; fast program: (loop(1 + ((loop(x * x, 2, 2) * y) * x), x, 1) * (1 + x)) div loop(x * x, 2, loop(x + x, x, 1))
(set-logic UFNIA)
(define-fun divf ((a Int) (b Int)) Int (ite (< 0 b) (div a b) (div (- a) (- b))))
(declare-fun f1 (Int) Int)
(declare-fun g1 () Int)
(declare-fun h1 () Int)
(declare-fun u1 (Int Int) Int)
(declare-fun v1 () Int)
(declare-fun f0 (Int Int) Int)
(declare-fun g0 (Int) Int)
(declare-fun h0 () Int)
(declare-fun u0 (Int Int) Int)
(declare-fun v0 (Int) Int)
(declare-fun f2 (Int) Int)
(declare-fun g2 () Int)
(declare-fun f3 (Int) Int)
(declare-fun g3 (Int) Int)
(declare-fun h3 () Int)
(declare-fun u3 (Int Int) Int)
(declare-fun v3 (Int) Int)
(declare-fun h2 (Int) Int)
(declare-fun u2 (Int Int) Int)
(declare-fun v2 (Int) Int)
(declare-fun small (Int) Int)
(declare-fun f5 (Int) Int)
(declare-fun g5 () Int)
(declare-fun h5 () Int)
(declare-fun u5 (Int Int) Int)
(declare-fun v5 () Int)
(declare-fun f4 (Int Int) Int)
(declare-fun g4 (Int) Int)
(declare-fun h4 () Int)
(declare-fun u4 (Int Int) Int)
(declare-fun v4 (Int) Int)
(declare-fun f6 (Int) Int)
(declare-fun g6 () Int)
(declare-fun f7 (Int) Int)
(declare-fun g7 (Int) Int)
(declare-fun h7 () Int)
(declare-fun u7 (Int Int) Int)
(declare-fun v7 (Int) Int)
(declare-fun h6 (Int) Int)
(declare-fun u6 (Int Int) Int)
(declare-fun v6 (Int) Int)
(declare-fun fast (Int) Int)
(assert (forall ((x Int)) (= (f1 x) (* x x))))
(assert (= g1 2))
(assert (= h1 2))
(assert (forall ((x Int) (y Int)) (= (u1 x y) (ite (<= x 0) y (f1 (u1 (- x 1) y))))))
(assert (= v1 (u1 g1 h1)))
(assert (forall ((x Int) (y Int)) (= (f0 x y) (+ 1 (* (* v1 x) y)))))
(assert (forall ((x Int)) (= (g0 x) x)))
(assert (= h0 1))
(assert (forall ((x Int) (y Int)) (= (u0 x y) (ite (<= x 0) y (f0 (u0 (- x 1) y) x)))))
(assert (forall ((x Int)) (= (v0 x) (u0 (g0 x) h0))))
(assert (forall ((x Int)) (= (f2 x) (* x x))))
(assert (= g2 2))
(assert (forall ((x Int)) (= (f3 x) (+ x x))))
(assert (forall ((x Int)) (= (g3 x) x)))
(assert (= h3 1))
(assert (forall ((x Int) (y Int)) (= (u3 x y) (ite (<= x 0) y (f3 (u3 (- x 1) y))))))
(assert (forall ((x Int)) (= (v3 x) (u3 (g3 x) h3))))
(assert (forall ((x Int)) (= (h2 x) (v3 x))))
(assert (forall ((x Int) (y Int)) (= (u2 x y) (ite (<= x 0) y (f2 (u2 (- x 1) y))))))
(assert (forall ((x Int)) (= (v2 x) (u2 g2 (h2 x)))))
(assert (forall ((x Int)) (= (small x) (divf (* (v0 x) (+ 1 x)) (v2 x)))))
(assert (forall ((x Int)) (= (f5 x) (* x x))))
(assert (= g5 2))
(assert (= h5 2))
(assert (forall ((x Int) (y Int)) (= (u5 x y) (ite (<= x 0) y (f5 (u5 (- x 1) y))))))
(assert (= v5 (u5 g5 h5)))
(assert (forall ((x Int) (y Int)) (= (f4 x y) (+ 1 (* (* v5 y) x)))))
(assert (forall ((x Int)) (= (g4 x) x)))
(assert (= h4 1))
(assert (forall ((x Int) (y Int)) (= (u4 x y) (ite (<= x 0) y (f4 (u4 (- x 1) y) x)))))
(assert (forall ((x Int)) (= (v4 x) (u4 (g4 x) h4))))
(assert (forall ((x Int)) (= (f6 x) (* x x))))
(assert (= g6 2))
(assert (forall ((x Int)) (= (f7 x) (+ x x))))
(assert (forall ((x Int)) (= (g7 x) x)))
(assert (= h7 1))
(assert (forall ((x Int) (y Int)) (= (u7 x y) (ite (<= x 0) y (f7 (u7 (- x 1) y))))))
(assert (forall ((x Int)) (= (v7 x) (u7 (g7 x) h7))))
(assert (forall ((x Int)) (= (h6 x) (v7 x))))
(assert (forall ((x Int) (y Int)) (= (u6 x y) (ite (<= x 0) y (f6 (u6 (- x 1) y))))))
(assert (forall ((x Int)) (= (v6 x) (u6 g6 (h6 x)))))
(assert (forall ((x Int)) (= (fast x) (divf (* (v4 x) (+ 1 x)) (v6 x)))))
(assert (exists ((c Int)) (and (>= c 0) (not (= (small c) (fast c))))))
(check-sat)
